N = 30;
M = 72;
Edge_Start = [1, 1, 2, 2, 3, 3, 3, 4, 4, 5, 5, 5, 6, 6, 7, 7, 8, 8, 9, 9, 10, 10, 11, 11, 11, 12, 12, 12, 13, 13, 14, 14, 15, 15, 16, 16, 17, 17, 17, 18, 18, 18, 19, 19, 19, 20, 20, 20, 21, 21, 21, 22, 22, 22, 23, 23, 24, 24, 25, 25, 26, 26, 26, 27, 27, 28, 28, 28, 29, 29, 30, 30];
Edge_End = [2, 8, 1, 3, 2, 4, 10, 3, 5, 4, 6, 12, 5, 7, 6, 14, 1, 9, 8, 17, 3, 11, 10, 12, 19, 5, 11, 13, 12, 21, 7, 15, 14, 23, 17, 24, 9, 16, 18, 17, 19, 26, 11, 18, 20, 19, 21, 28, 13, 20, 22, 21, 23, 30, 15, 22, 16, 25, 24, 26, 18, 25, 27, 26, 28, 20, 27, 29, 28, 30, 22, 29];
L = [11, 11, 11, 7, 7, 2, 1, 2, 12, 12, 5, 4, 5, 18, 18, 4, 11, 9, 9, 18, 1, 16, 16, 6, 15, 4, 6, 13, 13, 16, 4, 16, 16, 11, 4, 12, 18, 4, 13, 13, 8, 1, 15, 8, 5, 5, 11, 2, 16, 11, 6, 6, 4, 5, 11, 4, 12, 18, 18, 18, 1, 18, 6, 6, 6, 2, 6, 3, 3, 18, 5, 18];
T = [4, 12, 4, 8, 8, 9, 1, 9, 22, 22, 11, 15, 11, 20, 20, 5, 12, 13, 13, 15, 1, 13, 13, 10, 11, 15, 10, 7, 7, 18, 5, 4, 4, 4, 3, 14, 15, 3, 10, 10, 16, 1, 11, 16, 12, 12, 7, 1, 18, 7, 6, 6, 9, 1, 4, 9, 14, 19, 19, 17, 1, 17, 12, 12, 1, 1, 1, 8, 8, 8, 1, 8];
Lower_Bound = [0, 4, 12, 21, 43, 54, 74, 12, 25, 13, 26, 36, 43, 79, 75, 43, 40, 50, 37, 49, 56, 62, 71, 57, 68, 51, 51, 50, 58, 63];
Upper_Bound = [0, 4, 12, 21, 43, 54, 74, 12, 25, 13, 26, 36, 43, 79, 75, 43, 40, 50, 37, 49, 56, 62, 71, 57, 68, 51, 51, 50, 58, 63];
Start = 1;
End = 30;
Time = 63;
